50
9783

230 961
631 102
212 386
38 55
356 251
573 903
313 31
363 928
697 957
621 865
387 199
768 526
463 423
61 124
806 434
257 449
629 858
622 273
547 728
321 92
460 851
56 126
30 146
178 617
306 622
886 29
59 385
195 725
804 245
394 818
824 328
220 512
57 855
722 2
488 612
80 387
846 610
241 929
790 440
936 619
129 106
693 56
930 229
15 67
343 671
39 218
354 201
381 507
211 955
961 947
